14
 0  4 14  8 18 16 11  8  3 13 12  8 13  5 
 4  0 16 12 21 18 10  7  3  9 10 12 13  8 
14 16  0 17 25 28 11 22 18 26 14 10  8 18 
 8 12 17  0 10 11 19 12 10 19 20  7 19  4 
18 21 25 10  0  9 29 20 18 27 30 15 29 13 
16 18 28 11  9  0 27 13 14 20 28 18 29 10 
11 10 11 19 29 27  0 17 13 17  3 15  4 17 
 8  7 22 12 20 13 17  0  4  7 16 16 20  8 
 3  3 18 10 18 14 13  4  0  9 13 12 16  6 
13  9 26 19 27 20 17  7  9  0 16 21 21 15 
12 10 14 20 30 28  3 16 13 16  0 17  7 18 
 8 12 10  7 15 18 15 16 12 21 17  0 14  8 
13 13  8 19 29 29  4 20 16 21  7 14  0 18 
 5  8 18  4 13 10 17  8  6 15 18  8 18  0 

99
0 8 7 9 1 10 6 12 2 11 3 4 5 13 0
